(set-option :print-success true)
(set-logic AUFLIA)
(set-option :produce-models true)
(declare-fun x () Int)
(declare-fun y () Int)
(declare-fun z () Int)
(declare-fun a1 () (Array Int Int))
(declare-fun a2 () (Array Int Int))
(declare-fun a3 () (Array Int Int))
(assert (= (select a1 x) x))
(assert (= (store a1 x y) a1))
(check-sat)
(get-value (a1))
(get-value (a1 2))
(get-value (a1 2))
